Welcome to the CBC MILP Solver 
Version: 2.10.7 
Build Date: Feb 14 2022 

command line - cbc inputs/new_tr/order/jump35_reverse_tiers_input.lp sec 1800 solve solu solutions/new_tr/jump35_reverse_tiers_input.lp (default strategy 1)
seconds was changed from 1e+100 to 1800
Continuous objective value is 37416.4 - 1.55 seconds
Cgl0002I 244 variables fixed
Cgl0003I 0 fixed, 1 tightened bounds, 487 strengthened rows, 0 substitutions
Cgl0003I 0 fixed, 0 tightened bounds, 74 strengthened rows, 0 substitutions
Cgl0004I processed model has 3250 rows, 1016 columns (1016 integer (980 of which binary)) and 11071 elements
Cutoff increment increased from 1e-05 to 0.9999
Cbc0045I 1 integer variables out of 1016 objects (1016 integer) have cost of 1 - high priority
Cbc0045I branch on satisfied Y create fake objective Y random cost Y
Cbc0038I Initial state - 637 integers unsatisfied sum - 190.389
Cbc0038I Pass   1: (2.34 seconds) suminf.   56.91264 (307) obj. 66525.9 iterations 1885
Cbc0038I Pass   2: (2.42 seconds) suminf.   42.65658 (253) obj. 64942.5 iterations 511
Cbc0038I Pass   3: (2.44 seconds) suminf.   42.55448 (258) obj. 64718.5 iterations 126
Cbc0038I Pass   4: (2.48 seconds) suminf.   34.83622 (234) obj. 65905.9 iterations 251
Cbc0038I Pass   5: (2.50 seconds) suminf.   32.14694 (234) obj. 65728.8 iterations 101
Cbc0038I Pass   6: (2.56 seconds) suminf.   18.65129 (167) obj. 64417.7 iterations 413
Cbc0038I Pass   7: (2.56 seconds) suminf.   18.62593 (165) obj. 64002.4 iterations 42
Cbc0038I Pass   8: (2.61 seconds) suminf.    9.80671 (123) obj. 64810.5 iterations 305
Cbc0038I Pass   9: (2.62 seconds) suminf.    9.18578 (115) obj. 64810.5 iterations 53
Cbc0038I Pass  10: (2.69 seconds) suminf.    2.94894 (69) obj. 64206.5 iterations 539
Cbc0038I Pass  11: (2.70 seconds) suminf.    2.94752 (80) obj. 64206.5 iterations 45
Cbc0038I Pass  12: (2.74 seconds) suminf.    1.19658 (57) obj. 64208.2 iterations 286
Cbc0038I Pass  13: (2.82 seconds) suminf.    6.83639 (47) obj. 58368 iterations 698
Cbc0038I Pass  14: (2.83 seconds) suminf.    5.14156 (33) obj. 58368 iterations 14
Cbc0038I Pass  15: (2.84 seconds) suminf.    0.00000 (0) obj. 58368 iterations 87
Cbc0038I Solution found of 58368
Cbc0038I Cleaned solution of 58368
Cbc0038I Before mini branch and bound, 293 integers at bound fixed and 0 continuous
Cbc0038I Mini branch and bound did not improve solution (2.88 seconds)
Cbc0038I Round again with cutoff of 56281.3
Cbc0038I Pass  16: (2.89 seconds) suminf.   61.60292 (313) obj. 56281 iterations 49
Cbc0038I Pass  17: (2.94 seconds) suminf.   45.30138 (261) obj. 56281.3 iterations 336
Cbc0038I Pass  18: (2.96 seconds) suminf.   43.62102 (261) obj. 56281.3 iterations 103
Cbc0038I Pass  19: (2.97 seconds) suminf.   41.46870 (261) obj. 56281.3 iterations 62
Cbc0038I Pass  20: (2.98 seconds) suminf.   41.55033 (253) obj. 56281.3 iterations 12
Cbc0038I Pass  21: (3.00 seconds) suminf.   29.66638 (216) obj. 56281.3 iterations 155
Cbc0038I Pass  22: (3.02 seconds) suminf.   27.41596 (201) obj. 56281.3 iterations 72
Cbc0038I Pass  23: (3.06 seconds) suminf.   20.19672 (173) obj. 56281.3 iterations 290
Cbc0038I Pass  24: (3.08 seconds) suminf.   19.02665 (183) obj. 56281.3 iterations 111
Cbc0038I Pass  25: (3.13 seconds) suminf.   17.02308 (160) obj. 56281.3 iterations 394
Cbc0038I Pass  26: (3.14 seconds) suminf.   15.88185 (152) obj. 56281.3 iterations 35
Cbc0038I Pass  27: (3.16 seconds) suminf.   13.29115 (122) obj. 56281.3 iterations 164
Cbc0038I Pass  28: (3.17 seconds) suminf.   11.82736 (118) obj. 56281.3 iterations 15
Cbc0038I Pass  29: (3.19 seconds) suminf.   13.25303 (125) obj. 56281.3 iterations 166
Cbc0038I Pass  30: (3.21 seconds) suminf.   10.60196 (116) obj. 56281.3 iterations 124
Cbc0038I Pass  31: (3.28 seconds) suminf.   11.12310 (108) obj. 56281.3 iterations 565
Cbc0038I Pass  32: (3.30 seconds) suminf.    8.79002 (97) obj. 56281.3 iterations 117
Cbc0038I Pass  33: (3.35 seconds) suminf.   13.71302 (94) obj. 56281.3 iterations 394
Cbc0038I Pass  34: (3.37 seconds) suminf.    9.99607 (83) obj. 56281.3 iterations 111
Cbc0038I Pass  35: (3.40 seconds) suminf.   10.09725 (92) obj. 56281.3 iterations 292
Cbc0038I Pass  36: (3.41 seconds) suminf.    9.16532 (81) obj. 56281.3 iterations 50
Cbc0038I Pass  37: (3.44 seconds) suminf.    9.07774 (104) obj. 56281.3 iterations 224
Cbc0038I Pass  38: (3.45 seconds) suminf.    8.30227 (99) obj. 56281.3 iterations 44
Cbc0038I Pass  39: (3.48 seconds) suminf.    9.87547 (101) obj. 56281.3 iterations 212
Cbc0038I Pass  40: (3.49 seconds) suminf.    9.67808 (101) obj. 56281.3 iterations 36
Cbc0038I Pass  41: (3.52 seconds) suminf.   10.39445 (77) obj. 56281.3 iterations 225
Cbc0038I Pass  42: (3.53 seconds) suminf.    9.90138 (75) obj. 56281.3 iterations 36
Cbc0038I Pass  43: (3.57 seconds) suminf.    8.20748 (84) obj. 56281.3 iterations 424
Cbc0038I Pass  44: (3.58 seconds) suminf.    7.34254 (83) obj. 56281.3 iterations 53
Cbc0038I Pass  45: (3.60 seconds) suminf.    8.09250 (80) obj. 56281.3 iterations 155
Cbc0038I Pass  46: (3.61 seconds) suminf.    6.90405 (75) obj. 56281.3 iterations 50
Cbc0038I Pass  47: (3.62 seconds) suminf.    7.95711 (85) obj. 56281.3 iterations 121
Cbc0038I Pass  48: (3.64 seconds) suminf.    7.23687 (85) obj. 56281.3 iterations 69
Cbc0038I Pass  49: (3.66 seconds) suminf.    8.59209 (72) obj. 56281.3 iterations 181
Cbc0038I Pass  50: (3.67 seconds) suminf.    6.78218 (70) obj. 56281.3 iterations 94
Cbc0038I Pass  51: (3.71 seconds) suminf.    8.42343 (64) obj. 56281.3 iterations 260
Cbc0038I Pass  52: (3.72 seconds) suminf.    5.25158 (59) obj. 56281.3 iterations 78
Cbc0038I Pass  53: (3.73 seconds) suminf.    5.02626 (33) obj. 56281.3 iterations 99
Cbc0038I Pass  54: (3.74 seconds) suminf.    3.13069 (20) obj. 56281.3 iterations 51
Cbc0038I Pass  55: (3.75 seconds) suminf.    1.30260 (25) obj. 56281.3 iterations 72
Cbc0038I Pass  56: (3.76 seconds) suminf.    4.24368 (30) obj. 56281.3 iterations 65
Cbc0038I Pass  57: (3.77 seconds) suminf.    1.70643 (22) obj. 56281.3 iterations 14
Cbc0038I Pass  58: (3.78 seconds) suminf.    0.96140 (23) obj. 56281.3 iterations 55
Cbc0038I Pass  59: (3.79 seconds) suminf.    0.89618 (16) obj. 56281.3 iterations 70
Cbc0038I Pass  60: (3.79 seconds) suminf.    0.28569 (6) obj. 56281.3 iterations 48
Cbc0038I Pass  61: (3.80 seconds) suminf.    0.26677 (1) obj. 56281.3 iterations 22
Cbc0038I Solution found of 56281.3
Cbc0038I Branch and bound needed to clear up 1 general integers
Cbc0038I Full problem 3251 rows 1016 columns, reduced to 0 rows 0 columns
Cbc0038I Cleaned solution of 54272
Cbc0038I Before mini branch and bound, 267 integers at bound fixed and 0 continuous
Cbc0038I Full problem 3250 rows 1016 columns, reduced to 2594 rows 749 columns - 315 fixed gives 1025, 229 - ok now
Cbc0038I Full problem 3250 rows 1016 columns, reduced to 23 rows 11 columns
Cbc0038I Mini branch and bound did not improve solution (4.28 seconds)
Cbc0038I Round again with cutoff of 50918.7
Cbc0038I Pass  62: (4.30 seconds) suminf.   63.55895 (307) obj. 50918.7 iterations 72
Cbc0038I Pass  63: (4.35 seconds) suminf.   44.80352 (268) obj. 50918.7 iterations 416
Cbc0038I Pass  64: (4.37 seconds) suminf.   44.61604 (262) obj. 50918.7 iterations 78
Cbc0038I Pass  65: (4.38 seconds) suminf.   41.70757 (239) obj. 50918.7 iterations 66
Cbc0038I Pass  66: (4.40 seconds) suminf.   36.86716 (249) obj. 50918.7 iterations 90
Cbc0038I Pass  67: (4.40 seconds) suminf.   35.61948 (248) obj. 50918.7 iterations 16
Cbc0038I Pass  68: (4.42 seconds) suminf.   35.29935 (251) obj. 50918.7 iterations 77
Cbc0038I Pass  69: (4.48 seconds) suminf.   25.20430 (196) obj. 50918.7 iterations 388
Cbc0038I Pass  70: (4.49 seconds) suminf.   24.97930 (187) obj. 50918.7 iterations 35
Cbc0038I Pass  71: (4.49 seconds) suminf.   24.96398 (186) obj. 50918.7 iterations 17
Cbc0038I Pass  72: (4.54 seconds) suminf.   23.20799 (188) obj. 50918.7 iterations 278
Cbc0038I Pass  73: (4.55 seconds) suminf.   21.72863 (187) obj. 50918.7 iterations 95
Cbc0038I Pass  74: (4.57 seconds) suminf.   19.84674 (177) obj. 50918.7 iterations 116
Cbc0038I Pass  75: (4.58 seconds) suminf.   20.26808 (182) obj. 50918.7 iterations 38
Cbc0038I Pass  76: (4.62 seconds) suminf.   20.12959 (170) obj. 50918.7 iterations 220
Cbc0038I Pass  77: (4.64 seconds) suminf.   18.49864 (160) obj. 50918.7 iterations 156
Cbc0038I Pass  78: (4.69 seconds) suminf.   20.23344 (150) obj. 50918.7 iterations 348
Cbc0038I Pass  79: (4.70 seconds) suminf.   17.01948 (146) obj. 50918.7 iterations 63
Cbc0038I Pass  80: (4.71 seconds) suminf.   17.15070 (156) obj. 50918.7 iterations 35
Cbc0038I Pass  81: (4.74 seconds) suminf.   16.16264 (143) obj. 50918.7 iterations 148
Cbc0038I Pass  82: (4.75 seconds) suminf.   15.94330 (179) obj. 50918.7 iterations 74
Cbc0038I Pass  83: (4.79 seconds) suminf.   20.05719 (121) obj. 50918.7 iterations 301
Cbc0038I Pass  84: (4.80 seconds) suminf.   17.53623 (130) obj. 50918.7 iterations 64
Cbc0038I Pass  85: (4.83 seconds) suminf.   13.76354 (163) obj. 50918.7 iterations 146
Cbc0038I Pass  86: (4.86 seconds) suminf.   15.57682 (148) obj. 50918.7 iterations 182
Cbc0038I Pass  87: (4.87 seconds) suminf.   15.35104 (125) obj. 50918.7 iterations 104
Cbc0038I Pass  88: (4.89 seconds) suminf.   15.41793 (138) obj. 50918.7 iterations 74
Cbc0038I Pass  89: (4.92 seconds) suminf.   20.07291 (142) obj. 50918.7 iterations 272
Cbc0038I Pass  90: (4.95 seconds) suminf.   18.59342 (142) obj. 50918.7 iterations 149
Cbc0038I Pass  91: (4.96 seconds) suminf.   16.85882 (144) obj. 50918.7 iterations 102
Cbc0038I Pass  92: (5.01 seconds) suminf.   14.79153 (128) obj. 50918.7 iterations 346
Cbc0038I Pass  93: (5.02 seconds) suminf.   14.66437 (128) obj. 50918.7 iterations 61
Cbc0038I Pass  94: (5.04 seconds) suminf.   14.50759 (140) obj. 50918.7 iterations 124
Cbc0038I Pass  95: (5.08 seconds) suminf.   16.59911 (130) obj. 50918.7 iterations 221
Cbc0038I Pass  96: (5.09 seconds) suminf.   15.85491 (132) obj. 50918.7 iterations 100
Cbc0038I Pass  97: (5.11 seconds) suminf.   15.28270 (136) obj. 50918.7 iterations 111
Cbc0038I Pass  98: (5.14 seconds) suminf.   16.71497 (109) obj. 50918.7 iterations 269
Cbc0038I Pass  99: (5.16 seconds) suminf.   15.52251 (112) obj. 50918.7 iterations 86
Cbc0038I Pass 100: (5.17 seconds) suminf.   15.41714 (116) obj. 50918.7 iterations 55
Cbc0038I Pass 101: (5.19 seconds) suminf.   15.08937 (108) obj. 50918.7 iterations 127
Cbc0038I Pass 102: (5.20 seconds) suminf.   15.13942 (112) obj. 50918.7 iterations 64
Cbc0038I Pass 103: (5.23 seconds) suminf.   13.30440 (102) obj. 50918.7 iterations 282
Cbc0038I Pass 104: (5.24 seconds) suminf.   12.01938 (97) obj. 50918.7 iterations 58
Cbc0038I Pass 105: (5.25 seconds) suminf.   13.30851 (108) obj. 50918.7 iterations 29
Cbc0038I Pass 106: (5.28 seconds) suminf.   13.43181 (96) obj. 50918.7 iterations 231
Cbc0038I Pass 107: (5.29 seconds) suminf.   11.44905 (78) obj. 50918.7 iterations 64
Cbc0038I Pass 108: (5.30 seconds) suminf.   11.44889 (77) obj. 50918.7 iterations 66
Cbc0038I Pass 109: (5.35 seconds) suminf.   13.74076 (112) obj. 50918.7 iterations 339
Cbc0038I Pass 110: (5.36 seconds) suminf.   12.90900 (108) obj. 50918.7 iterations 76
Cbc0038I Pass 111: (5.40 seconds) suminf.   13.05941 (91) obj. 50918.7 iterations 323
Cbc0038I Pass 112: (5.41 seconds) suminf.   11.58582 (73) obj. 50918.7 iterations 68
Cbc0038I Pass 113: (5.49 seconds) suminf.    8.71521 (96) obj. 50918.7 iterations 652
Cbc0038I Pass 114: (5.52 seconds) suminf.    7.84748 (117) obj. 50918.7 iterations 187
Cbc0038I Pass 115: (5.55 seconds) suminf.    9.18372 (76) obj. 50918.7 iterations 234
Cbc0038I Pass 116: (5.57 seconds) suminf.    6.84210 (59) obj. 50918.7 iterations 139
Cbc0038I Pass 117: (5.61 seconds) suminf.   11.11755 (85) obj. 50918.7 iterations 286
Cbc0038I Pass 118: (5.64 seconds) suminf.    8.86918 (98) obj. 50918.7 iterations 220
Cbc0038I Pass 119: (5.71 seconds) suminf.    8.68614 (80) obj. 50918.7 iterations 557
Cbc0038I Pass 120: (5.72 seconds) suminf.    7.92833 (56) obj. 50918.7 iterations 97
Cbc0038I Pass 121: (5.73 seconds) suminf.    7.94233 (56) obj. 50918.7 iterations 16
Cbc0038I Pass 122: (5.77 seconds) suminf.    6.62067 (83) obj. 50918.7 iterations 275
Cbc0038I Pass 123: (5.78 seconds) suminf.    6.95988 (81) obj. 50918.7 iterations 42
Cbc0038I Pass 124: (5.79 seconds) suminf.    6.89459 (69) obj. 50918.7 iterations 64
Cbc0038I Pass 125: (5.82 seconds) suminf.    8.20263 (54) obj. 50918.7 iterations 262
Cbc0038I Pass 126: (5.83 seconds) suminf.    7.24554 (57) obj. 50918.7 iterations 72
Cbc0038I Pass 127: (5.86 seconds) suminf.    7.62246 (80) obj. 50918.7 iterations 245
Cbc0038I Pass 128: (5.97 seconds) suminf.   57.64082 (314) obj. 50918.7 iterations 869
Cbc0038I Pass 129: (6.05 seconds) suminf.   36.54584 (243) obj. 50918.7 iterations 498
Cbc0038I Pass 130: (6.07 seconds) suminf.   34.95156 (248) obj. 50918.7 iterations 98
Cbc0038I Pass 131: (6.08 seconds) suminf.   33.97423 (246) obj. 50918.7 iterations 38
Cbc0038I Pass 132: (6.12 seconds) suminf.   32.19263 (221) obj. 50918.7 iterations 303
Cbc0038I Pass 133: (6.16 seconds) suminf.   29.41729 (235) obj. 50918.7 iterations 169
Cbc0038I Pass 134: (6.16 seconds) suminf.   28.94017 (238) obj. 50918.7 iterations 26
Cbc0038I Pass 135: (6.20 seconds) suminf.   26.85091 (214) obj. 50918.7 iterations 260
Cbc0038I Pass 136: (6.22 seconds) suminf.   26.01172 (227) obj. 50918.7 iterations 105
Cbc0038I Pass 137: (6.23 seconds) suminf.   26.01172 (227) obj. 50918.7 iterations 5
Cbc0038I Pass 138: (6.26 seconds) suminf.   25.58696 (204) obj. 50918.7 iterations 194
Cbc0038I Pass 139: (6.27 seconds) suminf.   24.91936 (199) obj. 50918.7 iterations 64
Cbc0038I Pass 140: (6.28 seconds) suminf.   24.77890 (212) obj. 50918.7 iterations 43
Cbc0038I Pass 141: (6.29 seconds) suminf.   25.72176 (202) obj. 50918.7 iterations 76
Cbc0038I Pass 142: (6.31 seconds) suminf.   25.17809 (210) obj. 50918.7 iterations 75
Cbc0038I Pass 143: (6.32 seconds) suminf.   25.64227 (207) obj. 50918.7 iterations 81
Cbc0038I Pass 144: (6.34 seconds) suminf.   25.49742 (214) obj. 50918.7 iterations 69
Cbc0038I Pass 145: (6.34 seconds) suminf.   25.56491 (214) obj. 50918.7 iterations 41
Cbc0038I Pass 146: (6.38 seconds) suminf.   23.33007 (190) obj. 50918.7 iterations 263
Cbc0038I Pass 147: (6.39 seconds) suminf.   23.21703 (201) obj. 50918.7 iterations 22
Cbc0038I Pass 148: (6.42 seconds) suminf.   23.92056 (196) obj. 50918.7 iterations 150
Cbc0038I Pass 149: (6.43 seconds) suminf.   23.48326 (194) obj. 50918.7 iterations 103
Cbc0038I Pass 150: (6.44 seconds) suminf.   23.33699 (187) obj. 50918.7 iterations 11
Cbc0038I Pass 151: (6.45 seconds) suminf.   22.88960 (186) obj. 50918.7 iterations 49
Cbc0038I Pass 152: (6.48 seconds) suminf.   19.27499 (193) obj. 50918.7 iterations 217
Cbc0038I Pass 153: (6.49 seconds) suminf.   19.18111 (192) obj. 50918.7 iterations 39
Cbc0038I Pass 154: (6.52 seconds) suminf.   18.76394 (181) obj. 50918.7 iterations 252
Cbc0038I Pass 155: (6.53 seconds) suminf.   17.62729 (179) obj. 50918.7 iterations 43
Cbc0038I Pass 156: (6.58 seconds) suminf.   17.74161 (159) obj. 50918.7 iterations 315
Cbc0038I Pass 157: (6.61 seconds) suminf.   17.52218 (169) obj. 50918.7 iterations 122
Cbc0038I Pass 158: (6.65 seconds) suminf.   18.10554 (169) obj. 50918.7 iterations 302
Cbc0038I Pass 159: (6.67 seconds) suminf.   17.42868 (163) obj. 50918.7 iterations 85
Cbc0038I Pass 160: (6.69 seconds) suminf.   17.43605 (166) obj. 50918.7 iterations 162
Cbc0038I Pass 161: (6.86 seconds) suminf.   73.85916 (440) obj. 50918.7 iterations 1072
Cbc0038I No solution found this major pass
Cbc0038I Before mini branch and bound, 129 integers at bound fixed and 0 continuous
Cbc0038I Full problem 3250 rows 1016 columns, reduced to 2924 rows 887 columns - 334 fixed gives 1119, 265 - ok now
Cbc0038I Mini branch and bound did not improve solution (7.38 seconds)
Cbc0038I After 7.38 seconds - Feasibility pump exiting with objective of 54272 - took 5.34 seconds
Cbc0012I Integer solution of 54272 found by feasibility pump after 0 iterations and 0 nodes (7.38 seconds)
Cbc0038I Full problem 3250 rows 1016 columns, reduced to 2394 rows 663 columns - 302 fixed gives 940, 208 - ok now
Cbc0031I 55 added rows had average density of 62
Cbc0013I At root node, 55 cuts changed objective from 37509.667 to 38788.758 in 13 passes
Cbc0014I Cut generator 0 (Probing) - 17 row cuts average 2.9 elements, 1 column cuts (1 active)  in 0.088 seconds - new frequency is -100
Cbc0014I Cut generator 1 (Gomory) - 340 row cuts average 294.3 elements, 0 column cuts (0 active)  in 0.501 seconds - new frequency is 1
Cbc0014I Cut generator 2 (Knapsack) - 2 row cuts average 9.5 elements, 0 column cuts (0 active)  in 0.022 seconds - new frequency is -100
Cbc0014I Cut generator 3 (Clique) - 0 row cuts average 0.0 elements, 0 column cuts (0 active)  in 0.020 seconds - new frequency is -100
Cbc0014I Cut generator 4 (MixedIntegerRounding2) - 0 row cuts average 0.0 elements, 0 column cuts (0 active)  in 0.020 seconds - new frequency is -100
Cbc0014I Cut generator 5 (FlowCover) - 0 row cuts average 0.0 elements, 0 column cuts (0 active)  in 0.016 seconds - new frequency is -100
Cbc0014I Cut generator 6 (TwoMirCuts) - 345 row cuts average 82.6 elements, 0 column cuts (0 active)  in 0.215 seconds - new frequency is 1
Cbc0014I Cut generator 7 (ZeroHalf) - 1 row cuts average 16.0 elements, 0 column cuts (0 active)  in 0.035 seconds - new frequency is -100
Cbc0010I After 0 nodes, 1 on tree, 54272 best solution, best possible 38789 (19.08 seconds)
Cbc0038I Full problem 3250 rows 1016 columns, reduced to 2364 rows 649 columns - 292 fixed gives 952, 204 - ok now
Cbc0038I Full problem 3250 rows 1016 columns, reduced to 2487 rows 705 columns - 308 fixed gives 943, 205 - ok now
Cbc0010I After 100 nodes, 2 on tree, 54272 best solution, best possible 39107 (102.43 seconds)
Cbc0010I After 200 nodes, 5 on tree, 54272 best solution, best possible 39138 (168.18 seconds)
Cbc0038I Full problem 3250 rows 1016 columns, reduced to 2365 rows 655 columns - 307 fixed gives 883, 175 - ok now
Cbc0010I After 300 nodes, 2 on tree, 54272 best solution, best possible 39171 (236.79 seconds)
Cbc0010I After 400 nodes, 2 on tree, 54272 best solution, best possible 39184 (297.28 seconds)
Cbc0038I Full problem 3250 rows 1016 columns, reduced to 2514 rows 691 columns - 319 fixed gives 937, 206 - ok now
Cbc0010I After 500 nodes, 3 on tree, 54272 best solution, best possible 39184 (355.26 seconds)
Cbc0010I After 600 nodes, 2 on tree, 54272 best solution, best possible 39236 (420.24 seconds)
Cbc0038I Full problem 3250 rows 1016 columns, reduced to 2494 rows 696 columns - 318 fixed gives 980, 214 - ok now
Cbc0010I After 700 nodes, 2 on tree, 54272 best solution, best possible 39259 (476.89 seconds)
Cbc0038I Full problem 3250 rows 1016 columns, reduced to 2498 rows 699 columns - 314 fixed gives 982, 216 - ok now
Cbc0010I After 800 nodes, 1 on tree, 54272 best solution, best possible 39282 (537.10 seconds)
Cbc0038I Full problem 3250 rows 1016 columns, reduced to 2452 rows 686 columns - 306 fixed gives 981, 215 - ok now
Cbc0010I After 900 nodes, 1 on tree, 54272 best solution, best possible 39306 (594.66 seconds)
Cbc0038I Full problem 3250 rows 1016 columns, reduced to 2410 rows 674 columns - 297 fixed gives 978, 214 - ok now
Cbc0010I After 1000 nodes, 2 on tree, 54272 best solution, best possible 39323 (650.47 seconds)
Cbc0038I Full problem 3250 rows 1016 columns, reduced to 2431 rows 680 columns - 301 fixed gives 984, 217 - ok now
Cbc0010I After 1100 nodes, 2 on tree, 54272 best solution, best possible 39323 (709.85 seconds)
Cbc0038I Full problem 3250 rows 1016 columns, reduced to 2461 rows 687 columns - 307 fixed gives 981, 215 - ok now
Cbc0010I After 1200 nodes, 6 on tree, 54272 best solution, best possible 39323 (762.21 seconds)
Cbc0010I After 1300 nodes, 11 on tree, 54272 best solution, best possible 39323 (814.37 seconds)
Cbc0010I After 1400 nodes, 14 on tree, 54272 best solution, best possible 39323 (869.26 seconds)
Cbc0010I After 1500 nodes, 19 on tree, 54272 best solution, best possible 39323 (924.34 seconds)
Cbc0010I After 1600 nodes, 22 on tree, 54272 best solution, best possible 39323 (979.71 seconds)
Cbc0010I After 1700 nodes, 24 on tree, 54272 best solution, best possible 39323 (1039.02 seconds)
Cbc0038I Full problem 3250 rows 1016 columns, reduced to 2495 rows 685 columns - 333 fixed gives 963, 197 - ok now
Cbc0010I After 1800 nodes, 26 on tree, 54272 best solution, best possible 39323 (1099.90 seconds)
Cbc0010I After 1900 nodes, 34 on tree, 54272 best solution, best possible 39323 (1156.54 seconds)
Cbc0010I After 2000 nodes, 37 on tree, 54272 best solution, best possible 39323 (1217.40 seconds)
Cbc0010I After 2100 nodes, 42 on tree, 54272 best solution, best possible 39323 (1277.85 seconds)
Cbc0010I After 2200 nodes, 46 on tree, 54272 best solution, best possible 39323 (1336.00 seconds)
Cbc0010I After 2300 nodes, 48 on tree, 54272 best solution, best possible 39323 (1398.73 seconds)
Cbc0010I After 2400 nodes, 49 on tree, 54272 best solution, best possible 39323 (1459.27 seconds)
Cbc0010I After 2500 nodes, 49 on tree, 54272 best solution, best possible 39323 (1518.08 seconds)
Cbc0010I After 2600 nodes, 48 on tree, 54272 best solution, best possible 39323 (1579.33 seconds)
Cbc0010I After 2700 nodes, 49 on tree, 54272 best solution, best possible 39323 (1637.21 seconds)
Cbc0010I After 2800 nodes, 51 on tree, 54272 best solution, best possible 39323 (1699.12 seconds)
Cbc0010I After 2900 nodes, 55 on tree, 54272 best solution, best possible 39323 (1755.52 seconds)
Cbc0020I Exiting on maximum time
Cbc0005I Partial search - best objective 54272 (best possible 39323), took 6259768 iterations and 2979 nodes (1800.48 seconds)
Cbc0032I Strong branching done 12802 times (1182292 iterations), fathomed 15 nodes and fixed 28 variables
Cbc0035I Maximum depth 607, 0 variables fixed on reduced cost
Cuts at root node changed objective from 37509.7 to 38789
Probing was tried 13 times and created 18 cuts of which 0 were active after adding rounds of cuts (0.088 seconds)
Gomory was tried 388 times and created 498 cuts of which 0 were active after adding rounds of cuts (3.041 seconds)
Knapsack was tried 13 times and created 2 cuts of which 0 were active after adding rounds of cuts (0.022 seconds)
Clique was tried 13 times and created 0 cuts of which 0 were active after adding rounds of cuts (0.020 seconds)
MixedIntegerRounding2 was tried 13 times and created 0 cuts of which 0 were active after adding rounds of cuts (0.020 seconds)
FlowCover was tried 13 times and created 0 cuts of which 0 were active after adding rounds of cuts (0.016 seconds)
TwoMirCuts was tried 388 times and created 8766 cuts of which 0 were active after adding rounds of cuts (1.325 seconds)
ZeroHalf was tried 1 times and created 1 cuts of which 0 were active after adding rounds of cuts (0.035 seconds)
ImplicationCuts was tried 37 times and created 28 cuts of which 0 were active after adding rounds of cuts (0.002 seconds)

Result - Stopped on time limit

Objective value:                54272.00000000
Lower bound:                    39323.000
Gap:                            0.38
Enumerated nodes:               2979
Total iterations:               6259768
Time (CPU seconds):             1800.65
Time (Wallclock seconds):       1801.56

Total time (CPU seconds):       1800.66   (Wallclock seconds):       1801.58

